n_res = 4;
rc = [ 23, 22, 22, 23 ];
n_tasks = 30;
d = [ 7, 3, 2, 1, 9, 7, 5, 3, 4, 9, 5, 7, 2, 5, 5, 6, 8, 7, 5, 1, 5, 9, 9, 6, 10, 7, 6, 2, 7, 5 ];
rr = [| 10, 1, 3, 5, 8, 3, 4, 10, 8, 6, 7, 5, 3, 8, 8, 7, 9, 8, 3, 3, 3, 1, 3, 2, 10, 7, 2, 10, 8, 9
      | 1, 4, 7, 4, 10, 7, 6, 8, 7, 10, 2, 9, 10, 9, 4, 2, 9, 4, 1, 9, 10, 8, 5, 8, 10, 9, 4, 7, 10, 10
      | 9, 7, 6, 7, 10, 4, 10, 1, 9, 1, 3, 10, 8, 8, 5, 5, 4, 7, 6, 3, 9, 3, 10, 5, 2, 5, 10, 6, 1, 9
      | 3, 4, 10, 5, 3, 10, 7, 7, 6, 5, 5, 9, 8, 6, 1, 1, 1, 2, 10, 7, 9, 1, 4, 5, 6, 4, 8, 4, 3, 9 |];
suc = [ { 2 }, 
        { 1 }, 
        { 4 }, 
        { 3 }, 
        { 6 }, 
        { 5 }, 
        { 8 }, 
        { 7 }, 
        { 10 }, 
        { 9 }, 
        { 12 }, 
        { 11 }, 
        { 14 }, 
        { 13 }, 
        { 16 }, 
        { 15 }, 
        { 18 }, 
        { 17 }, 
        { 20 }, 
        { 19 }, 
        { 22 }, 
        { 21 }, 
        { 24 }, 
        { 23 }, 
        { 26 }, 
        { 25 }, 
        { 28 }, 
        { 27 }, 
        { 30 }, 
        { 29 }]; 
